NAME: GRASP_34_4
TYPE: TSP
COMMENT: line_34_4
DIMENSION: 34
EDGE_WEIGHT_TYPE: EUC_2D
NODE_COORD_SECTION
1 2124 4098
2 4390 3065
3 1229 1744
4 4853 2006
5 2310 167
6 2848 2752
7 425 2012
8 573 4376
9 3499 3073
10 2388 4969
11 3577 1584
12 2728 3500
13 3990 3128
14 3567 4047
15 2205 1574
16 3006 2523
17 2656 1886
18 1190 4732
19 2415 1707
20 3691 3540
21 2362 2048
22 2740 1023
23 2129 527
24 2591 776
25 3247 2599
26 1903 3577
27 2966 3127
28 3556 4294
29 3884 3707
30 4918 1073
31 4268 1410
32 3928 2422
33 2760 1910
34 3137 1614
